c Reduced graph for R50_1g generated by Cyril Grelier
p edge 41 92
e 1 5
e 1 11
e 1 21
e 1 25
e 1 26
e 1 27
e 1 29
e 1 35
e 2 15
e 2 18
e 2 19
e 2 26
e 2 35
e 2 38
e 2 40
e 3 4
e 3 7
e 3 12
e 3 16
e 3 22
e 3 25
e 3 36
e 4 5
e 4 8
e 4 10
e 4 27
e 4 28
e 4 37
e 5 19
e 5 20
e 5 27
e 5 28
e 5 29
e 6 7
e 6 9
e 6 13
e 6 14
e 6 24
e 6 39
e 6 40
e 7 15
e 7 19
e 7 29
e 7 32
e 8 12
e 8 15
e 8 26
e 8 37
e 9 10
e 9 17
e 9 19
e 9 24
e 10 12
e 10 13
e 10 18
e 11 15
e 11 16
e 11 22
e 11 31
e 12 14
e 12 41
e 13 18
e 13 20
e 13 22
e 14 20
e 14 36
e 14 41
e 15 27
e 16 17
e 16 22
e 16 37
e 17 21
e 17 30
e 18 23
e 20 31
e 21 30
e 21 32
e 23 24
e 23 34
e 23 38
e 24 39
e 25 30
e 25 31
e 26 31
e 28 33
e 28 39
e 29 34
e 30 33
e 32 34
e 33 36
e 35 40
e 38 41
